11161.88,62.39,70.87
13523.36,51.5,58.5
12158.0,57.28,65.07
15436.73,45.11,51.25
13609.86,51.17,58.13
14018.2,49.68,56.43
15593.2,44.66,50.73
13922.2,50.02,56.82
13550.34,51.39,58.38
12798.26,54.41,61.81
14147.49,49.22,55.92
14101.4,49.39,56.1
13512.11,51.54,58.55
14571.89,47.79,54.29
12619.79,55.18,62.69
15932.31,43.71,49.66
12191.48,57.12,64.89
16295.74,42.74,48.55
12773.31,54.52,61.93
14549.78,47.86,54.37
